* ENCODING=ISO-8859-1
NAME          CPLEX
ROWS
 N  obj1    
 G  c1      
 G  c2      
 G  c3      
 G  c4      
 G  c5      
 G  c6      
 G  c7      
 G  c8      
 G  c9      
 G  c10     
 G  c11     
 G  c12     
 G  c13     
 G  c14     
 G  c15     
 G  c16     
 G  c17     
 G  c18     
 G  c19     
 G  c20     
 G  c21     
 G  c22     
 G  c23     
 G  c24     
 G  c25     
 G  c26     
 G  c27     
 G  c28     
 G  c29     
 G  c30     
 G  c31     
 G  c32     
 G  c33     
 G  c34     
 G  c35     
 G  c36     
 G  c37     
 G  c38     
 G  c39     
 G  c40     
 G  c41     
 G  c42     
 G  c43     
 G  c44     
 G  c45     
 G  c46     
 G  c47     
 G  c48     
 G  c49     
 G  c50     
 G  c51     
 G  c52     
 G  c53     
 G  c54     
 G  c55     
 G  c56     
 G  c57     
 G  c58     
 G  c59     
 G  c60     
COLUMNS
    MARK0000  'MARKER'                 'INTORG'
    x1        obj1                            1
    x1        c4                            925
    x1        c8                            835
    x1        c10                           441
    x1        c34                           170
    x2        obj1                            1
    x2        c23                           926
    x2        c46                           877
    x2        c48                           426
    x2        c49                           222
    x3        obj1                            1
    x3        c1                            524
    x3        c15                           921
    x3        c28                           922
    x3        c33                           566
    x3        c43                           232
    x3        c57                           816
    x4        obj1                            1
    x4        c4                            541
    x4        c7                            380
    x4        c16                           653
    x4        c21                           387
    x4        c23                           623
    x4        c26                           103
    x4        c35                           207
    x4        c36                           725
    x4        c52                           125
    x5        obj1                            1
    x5        c21                           697
    x5        c22                           585
    x5        c35                           999
    x5        c43                           691
    x5        c60                           760
    x6        obj1                            1
    x6        c23                           915
    x6        c32                           225
    x7        obj1                            1
    x7        c11                           704
    x7        c28                           318
    x7        c41                           783
    x7        c45                           918
    x7        c53                           181
    x7        c54                           393
    x8        obj1                            1
    x8        c5                            192
    x8        c13                           891
    x8        c23                           626
    x8        c30                           190
    x8        c36                           511
    x8        c37                           708
    x8        c43                           832
    x8        c46                           140
    x9        obj1                            1
    x9        c3                            151
    x9        c6                            369
    x9        c18                           950
    x9        c21                           592
    x9        c44                           624
    x9        c58                           581
    x10       obj1                            1
    x10       c2                            256
    x10       c16                           519
    x10       c17                           266
    x10       c22                           639
    x10       c26                           170
    x10       c31                           802
    x10       c51                           546
    x11       obj1                            1
    x11       c3                            127
    x11       c12                           588
    x11       c28                           820
    x11       c35                           512
    x11       c42                           747
    x11       c55                           173
    x12       obj1                            1
    x12       c17                           673
    x12       c28                           777
    x12       c35                           101
    x12       c37                           714
    x12       c49                           957
    x13       obj1                            1
    x13       c5                            602
    x13       c23                           898
    x13       c26                           834
    x13       c27                           213
    x13       c33                           309
    x13       c35                           986
    x13       c49                           720
    x14       obj1                            1
    x14       c17                           275
    x14       c24                           323
    x14       c26                           431
    x14       c32                           778
    x14       c60                           862
    x15       obj1                            1
    x15       c7                            470
    x15       c18                           233
    x15       c19                           524
    x15       c22                           892
    x15       c23                           620
    x15       c25                           600
    x15       c28                           340
    x15       c39                           511
    x15       c40                           809
    x15       c44                           707
    x15       c47                           111
    x15       c48                           105
    x15       c54                           363
    x15       c55                           813
    x16       obj1                            1
    x16       c8                            547
    x16       c16                           102
    x16       c25                           870
    x16       c38                           940
    x16       c40                           549
    x16       c44                           302
    x16       c49                           140
    x16       c56                           521
    x17       obj1                            1
    x17       c8                            594
    x18       obj1                            1
    x18       c3                            553
    x18       c7                            115
    x18       c9                            345
    x18       c32                           752
    x18       c41                           741
    x18       c46                           485
    x18       c53                           630
    x18       c56                           560
    x19       obj1                            1
    x19       c14                           299
    x19       c22                           982
    x19       c31                           527
    x19       c41                           712
    x19       c45                           391
    x19       c50                           743
    x20       obj1                            1
    x20       c29                           606
    x20       c33                           409
    x20       c56                           805
    x21       obj1                            1
    x21       c5                            768
    x21       c7                            485
    x21       c13                           597
    x21       c26                           739
    x21       c49                           243
    x21       c52                           207
    x21       c57                           507
    x22       obj1                            1
    x22       c12                           948
    x22       c20                           383
    x22       c21                           640
    x22       c22                           132
    x22       c53                           692
    x22       c54                           515
    x23       obj1                            1
    x23       c3                            261
    x23       c22                           630
    x23       c25                           256
    x23       c30                           759
    x23       c35                           419
    x23       c47                           403
    x23       c52                           355
    x24       obj1                            1
    x24       c2                            339
    x24       c12                           190
    x24       c16                           229
    x24       c19                           346
    x24       c50                           705
    x25       obj1                            1
    x25       c15                           824
    x25       c33                           700
    x25       c38                           422
    x25       c44                           377
    x25       c56                           384
    x25       c59                           730
    x26       obj1                            1
    x26       c16                           953
    x26       c18                           933
    x26       c22                           176
    x26       c35                           863
    x26       c37                           574
    x26       c42                           783
    x27       obj1                            1
    x27       c30                           406
    x27       c31                           653
    x27       c35                           938
    x27       c37                           387
    x27       c46                           143
    x27       c51                           286
    x27       c52                           256
    x28       obj1                            1
    x28       c15                           802
    x28       c19                           533
    x28       c30                           982
    x28       c39                           858
    x28       c42                           781
    x28       c47                           794
    x28       c60                           566
    x29       obj1                            1
    x29       c11                           863
    x29       c12                           828
    x29       c14                           990
    x29       c15                           132
    x29       c25                           517
    x29       c51                           952
    x30       obj1                            1
    x30       c3                            173
    x30       c29                           772
    x30       c41                           365
    x30       c46                           806
    x30       c50                           172
    x30       c59                           918
    x31       obj1                            1
    x31       c6                            736
    x31       c16                           375
    x31       c20                           672
    x31       c29                           400
    x31       c46                           813
    x31       c59                           414
    x32       obj1                            1
    x32       c8                            343
    x32       c10                           206
    x32       c44                           172
    x32       c46                           742
    x33       obj1                            1
    x33       c1                            121
    x33       c4                            879
    x33       c6                            158
    x33       c21                           559
    x33       c24                           442
    x33       c29                           407
    x33       c32                           982
    x33       c58                           224
    x34       obj1                            1
    x34       c15                           342
    x34       c21                           930
    x34       c26                           925
    x34       c38                           277
    x34       c40                           498
    x34       c41                           315
    x34       c43                           470
    x34       c47                           973
    x34       c54                           741
    x35       obj1                            1
    x35       c2                            733
    x35       c8                            987
    x35       c10                           340
    x35       c22                           756
    x35       c31                           628
    x35       c54                           207
    x36       obj1                            1
    x36       c12                           799
    x36       c17                           158
    x36       c31                           494
    x37       obj1                            1
    x37       c12                           497
    x37       c18                           399
    x37       c26                           284
    x37       c57                           171
    x38       obj1                            1
    x38       c5                            558
    x38       c8                            541
    x38       c9                            228
    x38       c14                           612
    x38       c15                           116
    x38       c22                           318
    x38       c33                           755
    x38       c50                           997
    x38       c57                           863
    x39       obj1                            1
    x39       c29                           802
    x39       c31                           301
    x39       c56                           357
    x40       obj1                            1
    x40       c7                            246
    x40       c12                           974
    x40       c16                           882
    x40       c26                           516
    x40       c42                           626
    x40       c48                           338
    x41       obj1                            1
    x41       c2                            416
    x41       c44                           589
    x41       c47                           939
    x41       c49                           315
    x42       obj1                            1
    x42       c5                            252
    x42       c8                            861
    x42       c26                           597
    x42       c30                           622
    x42       c34                           870
    x42       c38                           397
    x42       c42                           900
    x42       c44                           798
    x43       obj1                            1
    x43       c2                            432
    x43       c21                           751
    x43       c30                           526
    x43       c33                           168
    x43       c37                           904
    x44       obj1                            1
    x44       c11                           763
    x44       c12                           161
    x44       c32                           378
    x44       c40                           951
    x44       c56                           224
    x44       c57                           622
    x44       c59                           511
    x45       obj1                            1
    x45       c15                           626
    x45       c19                           115
    x45       c20                           796
    x45       c27                           812
    x45       c28                           413
    x45       c33                           441
    x45       c34                           265
    x46       obj1                            1
    x46       c11                           492
    x46       c32                           829
    x46       c50                           462
    x46       c58                           567
    x47       obj1                            1
    x47       c13                           303
    x47       c23                           123
    x47       c51                           621
    x48       obj1                            1
    x48       c21                           872
    x48       c28                           849
    x48       c38                           338
    x48       c45                           329
    x48       c50                           960
    x48       c55                           315
    x49       obj1                            1
    x49       c5                            636
    x49       c23                           217
    x49       c25                           149
    x49       c28                           192
    x49       c31                           525
    x49       c34                           791
    x49       c48                           775
    x50       obj1                            1
    x50       c13                           137
    x50       c47                           269
    x50       c51                           903
    x51       obj1                            1
    x51       c6                            549
    x51       c19                           485
    x51       c30                           286
    x51       c42                           580
    x51       c45                           806
    x51       c47                           207
    x52       obj1                            1
    x52       c5                            475
    x52       c8                            749
    x52       c9                            593
    x52       c32                           516
    x52       c46                           597
    x53       obj1                            1
    x53       c18                           611
    x53       c27                           829
    x53       c45                           961
    x54       obj1                            1
    x54       c1                            651
    x54       c3                            725
    x54       c5                            562
    x54       c16                           682
    x54       c28                           845
    x54       c33                           507
    x54       c55                           918
    x55       obj1                            1
    x55       c5                            117
    x55       c44                           980
    x55       c48                           732
    x55       c50                           130
    x56       obj1                            1
    x56       c11                           623
    x56       c23                           619
    x56       c27                           857
    x56       c31                           969
    x56       c47                           976
    x57       obj1                            1
    x57       c35                           246
    x57       c36                           681
    x57       c37                           577
    x57       c44                           464
    x58       obj1                            1
    x58       c14                           174
    x58       c19                           949
    x58       c32                           512
    x58       c36                           489
    x58       c45                           408
    x58       c52                           436
    x58       c56                           799
    x59       obj1                            1
    x59       c11                           112
    x59       c15                           855
    x59       c37                           648
    x60       obj1                            1
    x60       c16                           892
    x60       c17                           432
    x60       c18                           584
    x60       c24                           828
    x60       c39                           370
    x60       c42                           460
    MARK0001  'MARKER'                 'INTEND'
RHS
    rhs       c1                            648
    rhs       c2                           1088
    rhs       c3                            995
    rhs       c4                           1173
    rhs       c5                           2081
    rhs       c6                            906
    rhs       c7                            848
    rhs       c8                           2729
    rhs       c9                            583
    rhs       c10                           494
    rhs       c11                          1779
    rhs       c12                          2493
    rhs       c13                           964
    rhs       c14                          1038
    rhs       c15                          2309
    rhs       c16                          2644
    rhs       c17                           902
    rhs       c18                          1855
    rhs       c19                          1476
    rhs       c20                           926
    rhs       c21                          2714
    rhs       c22                          2555
    rhs       c23                          2784
    rhs       c24                           797
    rhs       c25                          1196
    rhs       c26                          2300
    rhs       c27                          1356
    rhs       c28                          2738
    rhs       c29                          1494
    rhs       c30                          1886
    rhs       c31                          2450
    rhs       c32                          2486
    rhs       c33                          1928
    rhs       c34                          1048
    rhs       c35                          2636
    rhs       c36                          1203
    rhs       c37                          2256
    rhs       c38                          1187
    rhs       c39                           870
    rhs       c40                          1404
    rhs       c41                          1458
    rhs       c42                          2439
    rhs       c43                          1113
    rhs       c44                          2507
    rhs       c45                          1907
    rhs       c46                          2302
    rhs       c47                          2336
    rhs       c48                          1188
    rhs       c49                          1299
    rhs       c50                          2085
    rhs       c51                          1654
    rhs       c52                           690
    rhs       c53                           752
    rhs       c54                          1110
    rhs       c55                          1110
    rhs       c56                          1825
    rhs       c57                          1490
    rhs       c58                           686
    rhs       c59                          1287
    rhs       c60                          1094
BOUNDS
 LI bnd       x1        0
 LI bnd       x2        0
 LI bnd       x3        0
 LI bnd       x4        0
 LI bnd       x5        0
 LI bnd       x6        0
 LI bnd       x7        0
 LI bnd       x8        0
 LI bnd       x9        0
 LI bnd       x10       0
 LI bnd       x11       0
 LI bnd       x12       0
 LI bnd       x13       0
 LI bnd       x14       0
 LI bnd       x15       0
 LI bnd       x16       0
 LI bnd       x17       0
 LI bnd       x18       0
 LI bnd       x19       0
 LI bnd       x20       0
 LI bnd       x21       0
 LI bnd       x22       0
 LI bnd       x23       0
 LI bnd       x24       0
 LI bnd       x25       0
 LI bnd       x26       0
 LI bnd       x27       0
 LI bnd       x28       0
 LI bnd       x29       0
 LI bnd       x30       0
 LI bnd       x31       0
 LI bnd       x32       0
 LI bnd       x33       0
 LI bnd       x34       0
 LI bnd       x35       0
 LI bnd       x36       0
 LI bnd       x37       0
 LI bnd       x38       0
 LI bnd       x39       0
 LI bnd       x40       0
 LI bnd       x41       0
 LI bnd       x42       0
 LI bnd       x43       0
 LI bnd       x44       0
 LI bnd       x45       0
 LI bnd       x46       0
 LI bnd       x47       0
 LI bnd       x48       0
 LI bnd       x49       0
 LI bnd       x50       0
 LI bnd       x51       0
 LI bnd       x52       0
 LI bnd       x53       0
 LI bnd       x54       0
 LI bnd       x55       0
 LI bnd       x56       0
 LI bnd       x57       0
 LI bnd       x58       0
 LI bnd       x59       0
 LI bnd       x60       0
ENDATA
